(declare-fun e () String)
(declare-fun c () String)
(declare-fun g () String)
(declare-fun b () String)
(declare-fun d () String)
(declare-fun f () String)
(declare-fun a () String)
(declare-fun h () String)
(assert (= (str.++ h d b) (str.++ h e f e)))
(assert (= (str.++ f "dg") (str.++ d "b")))
(assert (= (str.++ "fec" g "h" c) (str.++ g b "b" a "cf")))

(check-sat)
